c WARNING: for repeatability, setting FPU to use double precision
d VARIABLES            71486        
d CONSTRAINTS          254212       
c ============================[ Problem Statistics ]=============================
c |                                                                             |
c |  Number of variables:         71486                                         |
c |  Number of clauses:          254212                                         |
c |  Parse time:                   0.04 s                                       |
c |                                                                             |
c ============================[ Search Statistics ]==============================
c | Conflicts |          ORIGINAL         |          LEARNT          | Progress |
c |           |    Vars  Clauses Literals |    Limit  Clauses Lit/Cl |          |
c ===============================================================================
c |       100 |   53433   208170   523547 |    76329      100     15 | 25.254 % |
c |       250 |   53433   208170   523547 |    83961      250     12 | 25.254 % |
c |       475 |   53433   208170   523547 |    92358      475     11 | 25.254 % |
c |       812 |   53433   208170   523547 |   101593      812     12 | 25.254 % |
c |      1318 |   53433   208170   523547 |   111753     1318     18 | 25.254 % |
c |      2077 |   53433   208170   523547 |   122928     2077     18 | 25.254 % |
c |      3216 |   53433   208170   523547 |   135221     3216     15 | 25.254 % |
c |      4924 |   53433   208170   523547 |   148743     4924     18 | 25.254 % |
c |      7486 |   53433   208170   523547 |   163617     7486     23 | 25.254 % |
c |     11330 |   53433   208170   523547 |   179979    11330     36 | 25.254 % |
c |     17096 |   53433   208170   523547 |   197977    17096     45 | 25.254 % |
c |     25745 |   53433   208170   523547 |   217775    25745     53 | 25.254 % |
c |     38719 |   53433   208170   523547 |   239553    38719     69 | 25.254 % |
c |     58180 |   53433   208170   523547 |   263508    58180     82 | 25.254 % |
c |     87372 |   53433   208170   523547 |   289859    87372    100 | 25.254 % |
c |    131161 |   53433   208170   523547 |   318845   131161    113 | 25.254 % |
c |    196845 |   53433   208170   523547 |   350729   196845    127 | 25.254 % |
c |    295371 |   53433   208170   523547 |   385802   295371    144 | 25.254 % |
c |    443160 |   53433   208170   523547 |   424382    74609    122 | 25.254 % |
c |    664843 |   53433   208170   523547 |   466821   296292    190 | 25.254 % |
c |    997368 |   53433   208170   523547 |   513503   179157    185 | 25.254 % |
c |   1496156 |   53433   208170   523547 |   564853   161783    144 | 25.254 % |
c |   2244338 |   53433   208170   523547 |   621339   362426    225 | 25.254 % |
c |   3366612 |   53433   208170   523547 |   683472   280037    156 | 25.254 % |
c ===============================================================================
c restarts              : 7689
c conflicts             : 4334942        (2420 /sec)
c decisions             : 12238775       (0.00 % random) (6833 /sec)
c propagations          : 4097649707     (2287789 /sec)
c conflict literals     : 854211625      (25.06 % deleted)
d RESTARTS             7689
d FAILURES             4334942      
d NODES                12238775     
d BACKTRACKS           12238775     
d PROPAGATIONS         4097649707   
d NOGOODSIZE           197.05 
d MEMORY               1004.00 
d TIME                 1791.1 

s UNKNOWN
